sat
(= |goto_symex::&92;guard#1| true)
(= |goto_symex::&92;guard#2| false)
(= |memory_model::choice_rf_1_17_0_10_T_0| false)
(= |memory_model::choice_rf_1_17_2_61_T_1| false)
(= |memory_model::choice_rf_1_17_3_16_T_2| true)
(= |memory_model::choice_rf_2_60_0_10_T_3| false)
(= |memory_model::choice_rf_2_60_1_18_T_4| false)
(= |memory_model::choice_rf_2_60_3_16_T_5| true)
(= |memory_model::choice_rf_3_15_0_10_T_6| true)
(= |memory_model::choice_rf_3_15_1_18_T_7| false)
(= |memory_model::choice_rf_3_15_2_61_T_8| false)
(= |memory_model::choice_rf_0_42_0_8_T_9| false)
(= |memory_model::choice_rf_0_42_0_38_T_10| true)
(= |memory_model::choice_rf_0_47_0_8_T_11| false)
(= |memory_model::choice_rf_0_47_0_38_T_12| false)
(= |memory_model::choice_rf_0_47_0_43_T_13| true)
(= |memory_model::choice_rf_1_0_0_19_F_14| false)
(= |memory_model::choice_rf_1_0_3_0_F_15| true)
(= |memory_model::choice_rf_2_44_0_19_F_16| true)
(= |memory_model::choice_rf_2_44_3_0_F_17| false)
(= |memory_model::choice_rf_0_51_0_11_F_18| false)
(= |memory_model::choice_rf_0_51_1_16_F_19| false)
(= |memory_model::choice_rf_0_51_2_59_F_20| true)
(= |memory_model::choice_rf_0_51_3_14_F_21| false)
(= |memory_model::choice_rf_1_15_0_11_F_22| true)
(= |memory_model::choice_rf_1_15_2_59_F_23| false)
(= |memory_model::choice_rf_1_15_3_14_F_24| false)
(= |memory_model::choice_rf_2_58_0_11_F_25| false)
(= |memory_model::choice_rf_2_58_1_16_F_26| false)
(= |memory_model::choice_rf_2_58_3_14_F_27| true)
(= |memory_model::choice_rf_3_13_0_11_F_28| false)
(= |memory_model::choice_rf_3_13_1_16_F_29| true)
(= |memory_model::choice_rf_3_13_2_59_F_30| false)
(= |memory_model::choice_rf_0_79_0_12_F_31| false)
(= |memory_model::choice_rf_0_79_1_1_F_32| true)
(= |memory_model::choice_rf_0_80_0_13_F_33| false)
(= |memory_model::choice_rf_0_80_2_31_F_34| true)
(= |memory_model::choice_rf_2_19_0_13_F_35| false)
(= |memory_model::choice_rf_0_74_0_14_F_36| false)
(= |memory_model::choice_rf_0_74_2_45_F_37| true)
(= |memory_model::choice_rf_2_43_0_14_F_38| false)
(= |memory_model::choice_rf_0_53_0_15_F_39| false)
(= |memory_model::choice_rf_0_53_0_52_F_40| true)
(= |memory_model::choice_rf_0_66_0_16_F_41| false)
(= |memory_model::choice_rf_0_93_0_16_F_42| false)
(= |memory_model::choice_rf_0_93_0_89_F_43| true)
(= |memory_model::choice_rf_0_94_0_16_F_44| false)
(= |memory_model::choice_rf_0_94_0_89_F_45| true)
(= |memory_model::choice_rf_0_54_0_20_F_46| false)
(= |memory_model::choice_rf_0_54_1_2_F_47| false)
(= |memory_model::choice_rf_0_54_1_14_F_48| false)
(= |memory_model::choice_rf_0_54_2_36_F_49| false)
(= |memory_model::choice_rf_0_54_2_57_F_50| false)
(= |memory_model::choice_rf_0_54_3_12_F_51| true)
(= |memory_model::choice_rf_0_70_0_20_F_52| false)
(= |memory_model::choice_rf_0_70_0_65_F_53| true)
(= |memory_model::choice_rf_0_70_1_2_F_54| false)
(= |memory_model::choice_rf_0_70_1_14_F_55| false)
(= |memory_model::choice_rf_0_70_2_36_F_56| false)
(= |memory_model::choice_rf_0_70_2_57_F_57| false)
(= |memory_model::choice_rf_0_70_3_12_F_58| false)
(= |memory_model::choice_rf_1_3_0_20_F_59| false)
(= |memory_model::choice_rf_1_3_0_65_F_60| false)
(= |memory_model::choice_rf_1_3_0_86_F_61| false)
(= |memory_model::choice_rf_1_3_1_2_F_62| false)
(= |memory_model::choice_rf_1_3_2_36_F_63| false)
(= |memory_model::choice_rf_1_3_2_57_F_64| true)
(= |memory_model::choice_rf_1_3_3_12_F_65| false)
(= |memory_model::choice_rf_2_27_0_20_F_66| true)
(= |memory_model::choice_rf_2_27_0_65_F_67| false)
(= |memory_model::choice_rf_2_27_0_86_F_68| false)
(= |memory_model::choice_rf_2_27_1_2_F_69| false)
(= |memory_model::choice_rf_2_27_1_14_F_70| false)
(= |memory_model::choice_rf_2_27_3_12_F_71| false)
(= |memory_model::choice_rf_2_46_0_20_F_72| false)
(= |memory_model::choice_rf_2_46_0_65_F_73| false)
(= |memory_model::choice_rf_2_46_0_86_F_74| false)
(= |memory_model::choice_rf_2_46_1_2_F_75| true)
(= |memory_model::choice_rf_2_46_1_14_F_76| false)
(= |memory_model::choice_rf_2_46_2_36_F_77| false)
(= |memory_model::choice_rf_2_46_3_12_F_78| false)
(= |memory_model::choice_rf_3_1_0_20_F_79| false)
(= |memory_model::choice_rf_3_1_0_65_F_80| false)
(= |memory_model::choice_rf_3_1_0_86_F_81| false)
(= |memory_model::choice_rf_3_1_1_2_F_82| false)
(= |memory_model::choice_rf_3_1_1_14_F_83| true)
(= |memory_model::choice_rf_3_1_2_36_F_84| false)
(= |memory_model::choice_rf_3_1_2_57_F_85| false)
(= |memory_model::choice_rf_0_78_0_21_F_86| false)
(= |memory_model::choice_rf_0_78_2_39_F_87| false)
(= |memory_model::choice_rf_2_28_0_21_F_88| false)
(= |memory_model::choice_rf_2_28_0_88_F_89| false)
(= |memory_model::choice_rf_0_71_0_22_F_90| false)
(= |memory_model::choice_rf_0_71_2_37_F_91| false)
(= |memory_model::choice_rf_2_26_0_22_F_92| false)
(= |memory_model::choice_rf_2_26_0_87_F_93| false)
(= |memory_model::choice_rf_0_59_0_23_F_94| true)
(= |memory_model::choice_rf_0_73_0_23_F_95| false)
(= |memory_model::choice_rf_0_73_0_62_F_96| true)
(= |memory_model::choice_rf_2_7_0_23_F_97| true)
(= |memory_model::choice_rf_2_7_0_62_F_98| false)
(= |memory_model::choice_rf_2_7_0_82_F_99| false)
(= |memory_model::choice_rf_1_8_0_24_F_100| true)
(= |memory_model::choice_rf_2_5_0_24_F_101| true)
(= |memory_model::choice_rf_2_5_1_11_F_102| false)
(= |memory_model::choice_rf_2_3_0_25_F_103| true)
(= |memory_model::choice_rf_2_24_0_25_F_104| false)
(= |memory_model::choice_rf_2_24_2_10_F_105| true)
(= |memory_model::choice_rf_2_51_0_25_F_106| false)
(= |memory_model::choice_rf_2_51_2_10_F_107| false)
(= |memory_model::choice_rf_2_51_2_38_F_108| true)
(= |memory_model::choice_rf_2_1_0_26_F_109| true)
(= |memory_model::choice_rf_2_1_3_8_F_110| false)
(= |memory_model::choice_rf_3_6_0_26_F_111| true)
(= |memory_model::choice_rf_0_58_0_27_F_112| false)
(= |memory_model::choice_rf_0_58_2_13_F_113| true)
(= |memory_model::choice_rf_0_75_0_27_F_114| false)
(= |memory_model::choice_rf_0_75_0_61_F_115| true)
(= |memory_model::choice_rf_0_75_2_13_F_116| false)
(= |memory_model::choice_rf_2_6_0_27_F_117| false)
(= |memory_model::choice_rf_2_6_0_61_F_118| false)
(= |memory_model::choice_rf_2_6_0_81_F_119| false)
(= |memory_model::choice_rf_1_5_0_28_F_120| false)
(= |memory_model::choice_rf_1_5_2_12_F_121| true)
(= |memory_model::choice_rf_2_4_0_28_F_122| false)
(= |memory_model::choice_rf_2_4_1_10_F_123| false)
(= |memory_model::choice_rf_2_2_0_29_F_124| false)
(= |memory_model::choice_rf_2_22_0_29_F_125| false)
(= |memory_model::choice_rf_2_22_2_11_F_126| true)
(= |memory_model::choice_rf_2_48_0_29_F_127| false)
(= |memory_model::choice_rf_2_48_2_11_F_128| false)
(= |memory_model::choice_rf_2_48_2_32_F_129| true)
(= |memory_model::choice_rf_2_0_0_30_F_130| false)
(= |memory_model::choice_rf_2_0_3_10_F_131| false)
(= |memory_model::choice_rf_3_3_0_30_F_132| false)
(= |memory_model::choice_rf_3_3_2_14_F_133| true)
(= |memory_model::choice_rf_0_57_0_33_F_134| false)
(= |memory_model::choice_rf_0_57_2_17_F_135| false)
(= |memory_model::choice_rf_0_57_2_35_F_136| true)
(= |memory_model::choice_rf_0_76_0_33_F_137| false)
(= |memory_model::choice_rf_0_76_2_17_F_138| false)
(= |memory_model::choice_rf_0_76_2_35_F_139| true)
(= |memory_model::choice_rf_1_7_0_33_F_140| false)
(= |memory_model::choice_rf_1_7_0_85_F_141| false)
(= |memory_model::choice_rf_1_7_2_17_F_142| false)
(= |memory_model::choice_rf_1_7_2_35_F_143| true)
(= |memory_model::choice_rf_2_9_0_33_F_144| true)
(= |memory_model::choice_rf_2_9_0_85_F_145| false)
(= |memory_model::choice_rf_2_21_0_33_F_146| false)
(= |memory_model::choice_rf_2_21_0_85_F_147| false)
(= |memory_model::choice_rf_2_21_2_17_F_148| true)
(= |memory_model::choice_rf_2_50_0_33_F_149| false)
(= |memory_model::choice_rf_2_50_0_85_F_150| false)
(= |memory_model::choice_rf_2_50_2_17_F_151| false)
(= |memory_model::choice_rf_2_50_2_35_F_152| true)
(= |memory_model::choice_rf_3_5_0_33_F_153| false)
(= |memory_model::choice_rf_3_5_0_85_F_154| false)
(= |memory_model::choice_rf_3_5_2_17_F_155| false)
(= |memory_model::choice_rf_3_5_2_35_F_156| true)
(= |memory_model::choice_rf_0_60_0_34_F_157| false)
(= |memory_model::choice_rf_0_60_1_13_F_158| false)
(= |memory_model::choice_rf_0_60_2_15_F_159| false)
(= |memory_model::choice_rf_0_60_2_33_F_160| false)
(= |memory_model::choice_rf_0_60_2_56_F_161| false)
(= |memory_model::choice_rf_0_60_3_11_F_162| true)
(= |memory_model::choice_rf_0_72_0_34_F_163| false)
(= |memory_model::choice_rf_0_72_0_64_F_164| true)
(= |memory_model::choice_rf_0_72_1_13_F_165| false)
(= |memory_model::choice_rf_0_72_2_15_F_166| false)
(= |memory_model::choice_rf_0_72_2_33_F_167| false)
(= |memory_model::choice_rf_0_72_2_56_F_168| false)
(= |memory_model::choice_rf_0_72_3_11_F_169| false)
(= |memory_model::choice_rf_1_9_0_34_F_170| false)
(= |memory_model::choice_rf_1_9_0_64_F_171| false)
(= |memory_model::choice_rf_1_9_0_83_F_172| false)
(= |memory_model::choice_rf_1_9_2_15_F_173| false)
(= |memory_model::choice_rf_1_9_2_33_F_174| false)
(= |memory_model::choice_rf_1_9_2_56_F_175| true)
(= |memory_model::choice_rf_1_9_3_11_F_176| false)
(= |memory_model::choice_rf_2_8_0_34_F_177| true)
(= |memory_model::choice_rf_2_8_0_64_F_178| false)
(= |memory_model::choice_rf_2_8_0_83_F_179| false)
(= |memory_model::choice_rf_2_8_1_13_F_180| false)
(= |memory_model::choice_rf_2_8_3_11_F_181| false)
(= |memory_model::choice_rf_2_25_0_34_F_182| false)
(= |memory_model::choice_rf_2_25_0_64_F_183| false)
(= |memory_model::choice_rf_2_25_0_83_F_184| false)
(= |memory_model::choice_rf_2_25_1_13_F_185| false)
(= |memory_model::choice_rf_2_25_2_15_F_186| true)
(= |memory_model::choice_rf_2_25_3_11_F_187| false)
(= |memory_model::choice_rf_2_52_0_34_F_188| false)
(= |memory_model::choice_rf_2_52_0_64_F_189| false)
(= |memory_model::choice_rf_2_52_0_83_F_190| false)
(= |memory_model::choice_rf_2_52_1_13_F_191| false)
(= |memory_model::choice_rf_2_52_2_15_F_192| false)
(= |memory_model::choice_rf_2_52_2_33_F_193| true)
(= |memory_model::choice_rf_2_52_3_11_F_194| false)
(= |memory_model::choice_rf_3_7_0_34_F_195| false)
(= |memory_model::choice_rf_3_7_0_64_F_196| false)
(= |memory_model::choice_rf_3_7_0_83_F_197| false)
(= |memory_model::choice_rf_3_7_1_13_F_198| true)
(= |memory_model::choice_rf_3_7_2_15_F_199| false)
(= |memory_model::choice_rf_3_7_2_33_F_200| false)
(= |memory_model::choice_rf_3_7_2_56_F_201| false)
(= |memory_model::choice_rf_0_55_0_35_F_202| false)
(= |memory_model::choice_rf_0_55_2_18_F_203| false)
(= |memory_model::choice_rf_0_55_2_34_F_204| true)
(= |memory_model::choice_rf_0_77_0_35_F_205| false)
(= |memory_model::choice_rf_0_77_2_18_F_206| false)
(= |memory_model::choice_rf_0_77_2_34_F_207| true)
(= |memory_model::choice_rf_1_4_0_35_F_208| false)
(= |memory_model::choice_rf_1_4_0_84_F_209| false)
(= |memory_model::choice_rf_1_4_2_18_F_210| false)
(= |memory_model::choice_rf_1_4_2_34_F_211| true)
(= |memory_model::choice_rf_2_20_0_35_F_212| false)
(= |memory_model::choice_rf_2_20_0_84_F_213| false)
(= |memory_model::choice_rf_2_20_2_18_F_214| true)
(= |memory_model::choice_rf_2_47_0_35_F_215| false)
(= |memory_model::choice_rf_2_47_0_84_F_216| false)
(= |memory_model::choice_rf_2_47_2_18_F_217| false)
(= |memory_model::choice_rf_2_47_2_34_F_218| true)
(= |memory_model::choice_rf_3_2_0_35_F_219| false)
(= |memory_model::choice_rf_3_2_0_84_F_220| false)
(= |memory_model::choice_rf_3_2_2_18_F_221| false)
(= |memory_model::choice_rf_3_2_2_34_F_222| true)
(= |memory_model::choice_rf_0_56_0_36_F_223| false)
(= |memory_model::choice_rf_0_56_1_12_F_224| false)
(= |memory_model::choice_rf_0_56_2_16_F_225| false)
(= |memory_model::choice_rf_0_56_2_41_F_226| false)
(= |memory_model::choice_rf_0_56_2_55_F_227| false)
(= |memory_model::choice_rf_0_56_3_9_F_228| true)
(= |memory_model::choice_rf_0_68_0_36_F_229| false)
(= |memory_model::choice_rf_0_68_0_63_F_230| true)
(= |memory_model::choice_rf_0_68_1_12_F_231| false)
(= |memory_model::choice_rf_0_68_2_16_F_232| false)
(= |memory_model::choice_rf_0_68_2_41_F_233| false)
(= |memory_model::choice_rf_0_68_2_55_F_234| false)
(= |memory_model::choice_rf_0_68_3_9_F_235| false)
(= |memory_model::choice_rf_1_6_0_36_F_236| false)
(= |memory_model::choice_rf_1_6_0_63_F_237| false)
(= |memory_model::choice_rf_1_6_0_91_F_238| false)
(= |memory_model::choice_rf_1_6_2_16_F_239| false)
(= |memory_model::choice_rf_1_6_2_41_F_240| false)
(= |memory_model::choice_rf_1_6_2_55_F_241| true)
(= |memory_model::choice_rf_1_6_3_9_F_242| false)
(= |memory_model::choice_rf_2_23_0_36_F_243| false)
(= |memory_model::choice_rf_2_23_0_63_F_244| false)
(= |memory_model::choice_rf_2_23_0_91_F_245| false)
(= |memory_model::choice_rf_2_23_1_12_F_246| false)
(= |memory_model::choice_rf_2_23_2_16_F_247| true)
(= |memory_model::choice_rf_2_23_3_9_F_248| false)
(= |memory_model::choice_rf_2_49_0_36_F_249| false)
(= |memory_model::choice_rf_2_49_0_63_F_250| false)
(= |memory_model::choice_rf_2_49_0_91_F_251| false)
(= |memory_model::choice_rf_2_49_1_12_F_252| false)
(= |memory_model::choice_rf_2_49_2_16_F_253| false)
(= |memory_model::choice_rf_2_49_2_41_F_254| true)
(= |memory_model::choice_rf_2_49_3_9_F_255| false)
(= |memory_model::choice_rf_3_4_0_36_F_256| false)
(= |memory_model::choice_rf_3_4_0_63_F_257| false)
(= |memory_model::choice_rf_3_4_0_91_F_258| false)
(= |memory_model::choice_rf_3_4_1_12_F_259| true)
(= |memory_model::choice_rf_3_4_2_16_F_260| false)
(= |memory_model::choice_rf_3_4_2_41_F_261| false)
(= |memory_model::choice_rf_3_4_2_55_F_262| false)
(= |memory_model::choice_rf_0_67_0_17_F_263| false)
(= |memory_model::choice_rf_0_67_2_42_F_264| false)
(= |memory_model::choice_rf_2_30_0_17_F_265| false)
(= |memory_model::choice_rf_2_30_0_92_F_266| false)
(= |memory_model::choice_rf_0_69_0_18_F_267| false)
(= |memory_model::choice_rf_0_69_2_40_F_268| false)
(= |memory_model::choice_rf_2_29_0_18_F_269| false)
(= |memory_model::choice_rf_2_29_0_90_F_270| false)
(= |memory_model::choice_ws-ext_0_10_1_18_T_271| true)
(= |memory_model::choice_ws-ext_0_10_2_61_T_272| true)
(= |memory_model::choice_ws-ext_0_10_3_16_T_273| true)
(= |memory_model::choice_ws-ext_1_18_2_61_T_274| true)
(= |memory_model::choice_ws-ext_1_18_3_16_T_275| false)
(= |memory_model::choice_ws-ext_2_61_3_16_T_276| false)
(= |memory_model::choice_ws-ext_0_19_3_0_F_277| true)
(= |memory_model::choice_ws-ext_0_11_1_16_F_278| true)
(= |memory_model::choice_ws-ext_0_11_2_59_F_279| true)
(= |memory_model::choice_ws-ext_0_11_3_14_F_280| true)
(= |memory_model::choice_ws-ext_1_16_2_59_F_281| true)
(= |memory_model::choice_ws-ext_1_16_3_14_F_282| true)
(= |memory_model::choice_ws-ext_2_59_3_14_F_283| false)
(= |memory_model::choice_ws-ext_0_12_1_1_F_284| true)
(= |memory_model::choice_ws-ext_0_13_2_31_F_285| true)
(= |memory_model::choice_ws-ext_0_14_2_45_F_286| true)
(= |memory_model::choice_ws-ext_0_20_1_2_F_287| true)
(= |memory_model::choice_ws-ext_0_20_1_14_F_288| true)
(= |memory_model::choice_ws-ext_0_20_2_36_F_289| true)
(= |memory_model::choice_ws-ext_0_20_2_57_F_290| true)
(= |memory_model::choice_ws-ext_0_20_3_12_F_291| true)
(= |memory_model::choice_ws-ext_0_65_1_2_F_292| false)
(= |memory_model::choice_ws-ext_0_65_1_14_F_293| false)
(= |memory_model::choice_ws-ext_0_65_2_36_F_294| false)
(= |memory_model::choice_ws-ext_0_65_2_57_F_295| false)
(= |memory_model::choice_ws-ext_0_65_3_12_F_296| false)
(= |memory_model::choice_ws-ext_0_86_1_2_F_297| false)
(= |memory_model::choice_ws-ext_0_86_1_14_F_298| false)
(= |memory_model::choice_ws-ext_0_86_2_36_F_299| false)
(= |memory_model::choice_ws-ext_0_86_2_57_F_300| false)
(= |memory_model::choice_ws-ext_0_86_3_12_F_301| false)
(= |memory_model::choice_ws-ext_1_2_2_36_F_302| false)
(= |memory_model::choice_ws-ext_1_2_2_57_F_303| true)
(= |memory_model::choice_ws-ext_1_2_3_12_F_304| true)
(= |memory_model::choice_ws-ext_1_14_2_36_F_305| false)
(= |memory_model::choice_ws-ext_1_14_2_57_F_306| false)
(= |memory_model::choice_ws-ext_1_14_3_12_F_307| true)
(= |memory_model::choice_ws-ext_2_36_3_12_F_308| true)
(= |memory_model::choice_ws-ext_2_57_3_12_F_309| true)
(= |memory_model::choice_ws-ext_0_21_2_39_F_310| true)
(= |memory_model::choice_ws-ext_0_88_2_39_F_311| false)
(= |memory_model::choice_ws-ext_0_22_2_37_F_312| true)
(= |memory_model::choice_ws-ext_0_87_2_37_F_313| false)
(= |memory_model::choice_ws-ext_0_24_1_11_F_314| true)
(= |memory_model::choice_ws-ext_0_25_2_10_F_315| true)
(= |memory_model::choice_ws-ext_0_25_2_38_F_316| true)
(= |memory_model::choice_ws-ext_0_25_2_54_F_317| true)
(= |memory_model::choice_ws-ext_0_26_3_8_F_318| true)
(= |memory_model::choice_ws-ext_0_27_2_13_F_319| true)
(= |memory_model::choice_ws-ext_0_61_2_13_F_320| false)
(= |memory_model::choice_ws-ext_0_81_2_13_F_321| false)
(= |memory_model::choice_ws-ext_0_28_1_10_F_322| true)
(= |memory_model::choice_ws-ext_0_28_2_12_F_323| true)
(= |memory_model::choice_ws-ext_1_10_2_12_F_324| false)
(= |memory_model::choice_ws-ext_0_29_2_11_F_325| true)
(= |memory_model::choice_ws-ext_0_29_2_32_F_326| true)
(= |memory_model::choice_ws-ext_0_29_2_53_F_327| true)
(= |memory_model::choice_ws-ext_0_30_2_14_F_328| true)
(= |memory_model::choice_ws-ext_0_30_3_10_F_329| true)
(= |memory_model::choice_ws-ext_2_14_3_10_F_330| true)
(= |memory_model::choice_ws-ext_0_33_2_17_F_331| true)
(= |memory_model::choice_ws-ext_0_33_2_35_F_332| true)
(= |memory_model::choice_ws-ext_0_85_2_17_F_333| false)
(= |memory_model::choice_ws-ext_0_85_2_35_F_334| false)
(= |memory_model::choice_ws-ext_0_34_1_13_F_335| true)
(= |memory_model::choice_ws-ext_0_34_2_15_F_336| true)
(= |memory_model::choice_ws-ext_0_34_2_33_F_337| true)
(= |memory_model::choice_ws-ext_0_34_2_56_F_338| true)
(= |memory_model::choice_ws-ext_0_34_3_11_F_339| true)
(= |memory_model::choice_ws-ext_0_64_1_13_F_340| false)
(= |memory_model::choice_ws-ext_0_64_2_15_F_341| false)
(= |memory_model::choice_ws-ext_0_64_2_33_F_342| false)
(= |memory_model::choice_ws-ext_0_64_2_56_F_343| false)
(= |memory_model::choice_ws-ext_0_64_3_11_F_344| false)
(= |memory_model::choice_ws-ext_0_83_1_13_F_345| false)
(= |memory_model::choice_ws-ext_0_83_2_15_F_346| false)
(= |memory_model::choice_ws-ext_0_83_2_33_F_347| false)
(= |memory_model::choice_ws-ext_0_83_2_56_F_348| false)
(= |memory_model::choice_ws-ext_0_83_3_11_F_349| false)
(= |memory_model::choice_ws-ext_1_13_2_15_F_350| false)
(= |memory_model::choice_ws-ext_1_13_2_33_F_351| false)
(= |memory_model::choice_ws-ext_1_13_2_56_F_352| false)
(= |memory_model::choice_ws-ext_1_13_3_11_F_353| true)
(= |memory_model::choice_ws-ext_2_15_3_11_F_354| true)
(= |memory_model::choice_ws-ext_2_33_3_11_F_355| true)
(= |memory_model::choice_ws-ext_2_56_3_11_F_356| true)
(= |memory_model::choice_ws-ext_0_35_2_18_F_357| true)
(= |memory_model::choice_ws-ext_0_35_2_34_F_358| true)
(= |memory_model::choice_ws-ext_0_84_2_18_F_359| false)
(= |memory_model::choice_ws-ext_0_84_2_34_F_360| false)
(= |memory_model::choice_ws-ext_0_36_1_12_F_361| true)
(= |memory_model::choice_ws-ext_0_36_2_16_F_362| true)
(= |memory_model::choice_ws-ext_0_36_2_41_F_363| true)
(= |memory_model::choice_ws-ext_0_36_2_55_F_364| true)
(= |memory_model::choice_ws-ext_0_36_3_9_F_365| true)
(= |memory_model::choice_ws-ext_0_63_1_12_F_366| false)
(= |memory_model::choice_ws-ext_0_63_2_16_F_367| false)
(= |memory_model::choice_ws-ext_0_63_2_41_F_368| false)
(= |memory_model::choice_ws-ext_0_63_2_55_F_369| false)
(= |memory_model::choice_ws-ext_0_63_3_9_F_370| false)
(= |memory_model::choice_ws-ext_0_91_1_12_F_371| false)
(= |memory_model::choice_ws-ext_0_91_2_16_F_372| false)
(= |memory_model::choice_ws-ext_0_91_2_41_F_373| false)
(= |memory_model::choice_ws-ext_0_91_2_55_F_374| false)
(= |memory_model::choice_ws-ext_0_91_3_9_F_375| false)
(= |memory_model::choice_ws-ext_1_12_2_16_F_376| false)
(= |memory_model::choice_ws-ext_1_12_2_41_F_377| false)
(= |memory_model::choice_ws-ext_1_12_2_55_F_378| false)
(= |memory_model::choice_ws-ext_1_12_3_9_F_379| true)
(= |memory_model::choice_ws-ext_2_16_3_9_F_380| true)
(= |memory_model::choice_ws-ext_2_41_3_9_F_381| true)
(= |memory_model::choice_ws-ext_2_55_3_9_F_382| true)
(= |memory_model::choice_ws-ext_0_17_2_42_F_383| true)
(= |memory_model::choice_ws-ext_0_92_2_42_F_384| false)
(= |memory_model::choice_ws-ext_0_18_2_40_F_385| true)
(= |memory_model::choice_ws-ext_0_90_2_40_F_386| false)
(= |main$tmp_guard0#3| #b00000001)
(= |__CPROVER_next_thread_id#3| #b00000000000000000000000000000001)
(= |__CPROVER_next_thread_id#6| #b00000000000000000000000000000010)
(= |__unbuffered_cnt#2| #b00000000000000000000000000000011)
(= |y$w_buff0_used#2| #b00000000)
(= |y$r_buff0_thd0#2| #b00000000)
(= |y$w_buff0#2| #b00000000000000000000000000000010)
(= |y$w_buff1_used#2| #b00000000)
(= |y$r_buff1_thd0#2| #b00000000)
(= |y$w_buff1#2| #b00000000000000000000000000000000)
(= |y#2| #b00000000000000000000000000000010)
(= |y#4| #b00000000000000000000000000000010)
(= |y$w_buff0_used#6| #b00000000)
(= |y$w_buff1_used#6| #b00000000)
(= |y$r_buff0_thd0#8| #b00000000)
(= |y$r_buff1_thd0#7| #b00000000)
(= |nondet_symex::nondet0| #b10000000000000000000000000000000)
(= |weak$$choice0#2| #b00000001)
(= |weak$$choice0#3| #b10000000)
(= |nondet_symex::nondet1| #b10000000000000000000000000000000)
(= |weak$$choice2#2| #b00000001)
(= |weak$$choice2#3| #b00000000)
(= |y$flush_delayed#2| #b00000001)
(= |y$flush_delayed#3| #b00000000)
(= |y#6| #b00000000000000000000000000000010)
(= |y$mem_tmp#2| #b00000000000000000000000000000010)
(= |y$mem_tmp#3| #b10000000000000000000000000000000)
(= |y$w_buff0_used#11| #b00000000)
(= |y$r_buff0_thd0#11| #b00000000)
(= |y$w_buff1_used#9| #b00000000)
(= |y$r_buff1_thd0#9| #b00000000)
(= |y$w_buff0#4| #b00000000000000000000000000000010)
(= |y$w_buff1#4| #b00000000000000000000000000000000)
(= |y#9| #b00000000000000000000000000000010)
(= |y$w_buff0#10| #b00000000000000000000000000000010)
(= |y$w_buff1#10| #b00000000000000000000000000000000)
(= |y$w_buff0_used#23| #b00000000)
(= |y$w_buff1_used#17| #b00000000)
(= |y$r_buff0_thd0#33| #b00000000)
(= |y$r_buff1_thd0#19| #b00000000)
(= |__unbuffered_p0_EAX#2| #b00000000000000000000000000000001)
(= |__unbuffered_p1_EAX#2| #b00000000000000000000000000000010)
(= |__unbuffered_p1_EBX#2| #b00000000000000000000000000000000)
(= |main$tmp_guard1#2| #b00000000)
(= |main$tmp_guard1#3| #b00000001)
(= |y#13| #b00000000000000000000000000000010)
(= |y$flush_delayed#6| #b00000000)
(= |main$tmp_guard1#6| #b00000000)
(= |pthread_create::1::this_thread_id!1@0#0| #b10000000000000000000000000000000)
(= |x#2| #b00000000000000000000000000000001)
(= |y$w_buff0_used#31| #b00000000)
(= |y$r_buff0_thd1#2| #b00000000)
(= |y$w_buff0#12| #b00000000000000000000000000000010)
(= |y$w_buff1_used#21| #b00000000)
(= |y$r_buff1_thd1#2| #b00000000)
(= |y$w_buff1#12| #b00000000000000000000000000000000)
(= |y#16| #b00000000000000000000000000000010)
(= |__unbuffered_cnt#4| #b00000000000000000000000000000000)
(= |pthread_create::1::this_thread_id!2@0#0| #b00000000000000000000000000000000)
(= |y$w_buff0#14| #b00000000000000000000000000000000)
(= |y$w_buff0_used#34| #b00000000)
(= |y$r_buff0_thd0#38| #b00000000)
(= |y$r_buff1_thd0#21| #b00000000)
(= |y$r_buff1_thd0#22| #b00000000)
(= |y$r_buff0_thd1#5| #b00000000)
(= |y$r_buff1_thd1#5| #b00000000)
(= |y$r_buff1_thd1#6| #b00000000)
(= |y$r_buff0_thd2#2| #b00000000)
(= |y$r_buff1_thd2#2| #b00000000)
(= |y$r_buff1_thd2#3| #b00000000)
(= |y$r_buff0_thd3#2| #b00000000)
(= |y$r_buff1_thd3#2| #b00000000)
(= |y$r_buff1_thd3#3| #b10000000)
(= |y$r_buff0_thd2#4| #b00000001)
(= |nondet_symex::nondet3| #b10000000000000000000000000000000)
(= |weak$$choice0#5| #b00000001)
(= |weak$$choice0#6| #b10000000)
(= |nondet_symex::nondet4| #b10000000000000000000000000000000)
(= |weak$$choice2#12| #b00000001)
(= |weak$$choice2#13| #b00000000)
(= |y$flush_delayed#8| #b00000001)
(= |y$flush_delayed#9| #b00000000)
(= |y#19| #b00000000000000000000000000000000)
(= |y$mem_tmp#6| #b00000000000000000000000000000000)
(= |y$mem_tmp#7| #b10000000000000000000000000000000)
(= |y$w_buff0_used#37| #b00000001)
(= |y$r_buff0_thd2#6| #b00000001)
(= |y$w_buff1_used#25| #b00000000)
(= |y$r_buff1_thd2#5| #b00000000)
(= |y$w_buff0#17| #b00000000000000000000000000000010)
(= |y$w_buff1#15| #b00000000000000000000000000000000)
(= |y#22| #b00000000000000000000000000000010)
(= |y$w_buff0#23| #b00000000000000000000000000000010)
(= |y$w_buff1#21| #b00000000000000000000000000000000)
(= |y$w_buff0_used#49| #b00000001)
(= |y$w_buff1_used#33| #b00000000)
(= |y$r_buff0_thd2#28| #b00000001)
(= |y$r_buff1_thd2#15| #b00000000)
(= |__unbuffered_p1_EAX#4| #b00000000000000000000000000000010)
(= |__unbuffered_p1_EAX#5| #b10000000000000000000000000000000)
(= |y#26| #b00000000000000000000000000000000)
(= |y$flush_delayed#12| #b00000000)
(= |x#4| #b00000000000000000000000000000000)
(= |__unbuffered_p1_EBX#4| #b00000000000000000000000000000000)
(= |__unbuffered_p1_EBX#5| #b00000000000000000000000000000001)
(= |y$w_buff0_used#57| #b00000001)
(= |y$r_buff0_thd2#33| #b00000001)
(= |y$w_buff0#25| #b00000000000000000000000000000010)
(= |y$w_buff1_used#37| #b00000000)
(= |y$r_buff1_thd2#17| #b00000000)
(= |y$w_buff1#23| #b00000000000000000000000000000000)
(= |y#28| #b00000000000000000000000000000001)
(= |y#30| #b00000000000000000000000000000010)
(= |y$w_buff0_used#61| #b00000000)
(= |y$w_buff1_used#41| #b00000000)
(= |y$r_buff0_thd2#39| #b00000001)
(= |y$r_buff1_thd2#22| #b00000000)
(= |__unbuffered_cnt#7| #b00000000000000000000000000000010)
(= |__unbuffered_cnt#9| #b00000000000000000000000000000011)
(= |pthread_create::1::this_thread_id!3@0#0| #b10000000000000000000000000000000)
(= |y$w_buff0_used#66| #b00000000)
(= |y$r_buff0_thd3#4| #b00000000)
(= |y$w_buff0#27| #b00000000000000000000000000000010)
(= |y$w_buff1_used#44| #b00000000)
(= |y$r_buff1_thd3#5| #b00000000)
(= |y$w_buff1#25| #b00000000000000000000000000000000)
(= |y#32| #b00000000000000000000000000000010)
(= |__unbuffered_cnt#11| #b00000000000000000000000000000001)
(= |__CPROVER_threads_exited#1$wclk$8| #b00001010)
(= |__CPROVER_threads_exited#2$rclk$8| #b11111100)
(= |__CPROVER_threads_exited#5$wclk$8| #b11111111)
(= |__CPROVER_threads_exited#7$wclk$8| #b11110000)
(= |__CPROVER_threads_exited#4$rclk$8| #b11110110)
(= |__CPROVER_threads_exited#3$wclk$8| #b11111101)
(= |__CPROVER_threads_exited#6$rclk$8| #b11100010)
(= |x#1$wclk$8| #b00010100)
(= |x#2$rclk$8| #b10100001)
(= |x#6$wclk$8| #b10100000)
(= |x#4$rclk$8| #b10011101)
(= |__unbuffered_cnt#6$wclk$8| #b11000000)
(= |__unbuffered_cnt#2$rclk$8| #b11010001)
(= |__unbuffered_cnt#10$wclk$8| #b11000111)
(= |__unbuffered_cnt#13$wclk$8| #b11000010)
(= |__unbuffered_cnt#1$wclk$8| #b00001011)
(= |__unbuffered_cnt#4$rclk$8| #b11000000)
(= |__unbuffered_cnt#7$rclk$8| #b11000111)
(= |__unbuffered_cnt#11$rclk$8| #b11000010)
(= |__unbuffered_p0_EAX#4$wclk$8| #b10100001)
(= |__unbuffered_p0_EAX#2$rclk$8| #b11011000)
(= |__unbuffered_p1_EAX#6$wclk$8| #b10010101)
(= |__unbuffered_p1_EAX#2$rclk$8| #b11011000)
(= |__unbuffered_p1_EAX#1$wclk$8| #b00001101)
(= |__unbuffered_p1_EAX#5$rclk$8| #b10010101)
(= |__unbuffered_p1_EBX#6$wclk$8| #b10011101)
(= |__unbuffered_p1_EBX#2$rclk$8| #b11011000)
(= |__unbuffered_p1_EBX#1$wclk$8| #b00001110)
(= |__unbuffered_p1_EBX#5$rclk$8| #b10011101)
(= |main$tmp_guard1#5| #b00000000)
(= |y#15$wclk$8| #b10100010)
(= |y#2$rclk$8| #b11010011)
(= |y#18$wclk$8| #b10101110)
(= |y#27$wclk$8| #b10010101)
(= |y#31$wclk$8| #b10100011)
(= |y#34$wclk$8| #b11000001)
(= |y#6$rclk$8| #b11011000)
(= |y#1$wclk$8| #b00010101)
(= |y#16$rclk$8| #b10101110)
(= |y#5$wclk$8| #b11010011)
(= |y#14$wclk$8| #b11011000)
(= |y#19$rclk$8| #b10010101)
(= |y#28$rclk$8| #b10100011)
(= |y#32$rclk$8| #b11000001)
(= |y$flush_delayed#13$wclk$8| #b10010101)
(= |y$flush_delayed#3$rclk$8| #b11011000)
(= |y$flush_delayed#1$wclk$8| #b00011000)
(= |y$flush_delayed#9$rclk$8| #b10010101)
(= |y$flush_delayed#7$wclk$8| #b11011000)
(= |y$mem_tmp#9$wclk$8| #b10010101)
(= |y$mem_tmp#3$rclk$8| #b11011000)
(= |y$mem_tmp#1$wclk$8| #b00011001)
(= |y$mem_tmp#7$rclk$8| #b10010101)
(= |y$mem_tmp#5$wclk$8| #b11011000)
(= |y$r_buff0_thd0#1$wclk$8| #b00011010)
(= |y$r_buff0_thd0#38$rclk$8| #b10000110)
(= |y$r_buff0_thd0#10$wclk$8| #b11010011)
(= |y$r_buff0_thd0#37$wclk$8| #b11011000)
(= |y$r_buff0_thd1#1$wclk$8| #b00101011)
(= |y$r_buff0_thd1#2$rclk$8| #b10101110)
(= |y$r_buff0_thd1#5$rclk$8| #b10000110)
(= |y$r_buff0_thd1#4$wclk$8| #b10101110)
(= |y$r_buff0_thd2#1$wclk$8| #b00110000)
(= |y$r_buff0_thd2#2$rclk$8| #b10000110)
(= |y$r_buff0_thd2#6$rclk$8| #b10010101)
(= |y$r_buff0_thd2#33$rclk$8| #b10100011)
(= |y$r_buff0_thd3#1$wclk$8| #b00110001)
(= |y$r_buff0_thd3#2$rclk$8| #b10000110)
(= |y$r_buff0_thd3#6$wclk$8| #b11000001)
(= |y$r_buff0_thd3#4$rclk$8| #b11000001)
(= |y$r_buff1_thd0#23$wclk$8| #b10000110)
(= |y$r_buff1_thd0#2$rclk$8| #b11010011)
(= |y$r_buff1_thd0#9$rclk$8| #b11011000)
(= |y$r_buff1_thd0#1$wclk$8| #b00110010)
(= |y$r_buff1_thd0#22$rclk$8| #b10000110)
(= |y$r_buff1_thd0#8$wclk$8| #b11010011)
(= |y$r_buff1_thd0#20$wclk$8| #b11011000)
(= |y$r_buff1_thd1#1$wclk$8| #b00110011)
(= |y$r_buff1_thd1#2$rclk$8| #b10101110)
(= |y$r_buff1_thd1#7$wclk$8| #b10000110)
(= |y$r_buff1_thd1#6$rclk$8| #b10000110)
(= |y$r_buff1_thd1#4$wclk$8| #b10101110)
(= |y$r_buff1_thd2#1$wclk$8| #b00110100)
(= |y$r_buff1_thd2#3$rclk$8| #b10000110)
(= |y$r_buff1_thd2#5$rclk$8| #b10010101)
(= |y$r_buff1_thd2#17$rclk$8| #b10100011)
(= |y$r_buff1_thd3#1$wclk$8| #b00110111)
(= |y$r_buff1_thd3#3$rclk$8| #b10000110)
(= |y$r_buff1_thd3#7$wclk$8| #b11000001)
(= |y$r_buff1_thd3#5$rclk$8| #b11000001)
(= |y$r_buff1_thd3#4$wclk$8| #b10000110)
(= |y$w_buff0#16$wclk$8| #b10000110)
(= |y$w_buff0#2$rclk$8| #b11010011)
(= |y$w_buff0#24$wclk$8| #b10010101)
(= |y$w_buff0#4$rclk$8| #b11011000)
(= |y$w_buff0#1$wclk$8| #b00111111)
(= |y$w_buff0#12$rclk$8| #b10101110)
(= |y$w_buff0#11$wclk$8| #b11011000)
(= |y$w_buff0#14$rclk$8| #b10000110)
(= |y$w_buff0#17$rclk$8| #b10010101)
(= |y$w_buff0#25$rclk$8| #b10100011)
(= |y$w_buff0#27$rclk$8| #b11000001)
(= |y$w_buff0_used#33$wclk$8| #b10101110)
(= |y$w_buff0_used#2$rclk$8| #b11010011)
(= |y$w_buff0_used#36$wclk$8| #b10000110)
(= |y$w_buff0_used#56$wclk$8| #b10010101)
(= |y$w_buff0_used#65$wclk$8| #b10100011)
(= |y$w_buff0_used#68$wclk$8| #b11000001)
(= |y$w_buff0_used#11$rclk$8| #b11011000)
(= |y$w_buff0_used#1$wclk$8| #b01000000)
(= |y$w_buff0_used#31$rclk$8| #b10101110)
(= |y$w_buff0_used#10$wclk$8| #b11010011)
(= |y$w_buff0_used#30$wclk$8| #b11011000)
(= |y$w_buff0_used#34$rclk$8| #b10000110)
(= |y$w_buff0_used#37$rclk$8| #b10010101)
(= |y$w_buff0_used#57$rclk$8| #b10100011)
(= |y$w_buff0_used#66$rclk$8| #b11000001)
(= |y$w_buff1#14$wclk$8| #b10000110)
(= |y$w_buff1#2$rclk$8| #b11010011)
(= |y$w_buff1#22$wclk$8| #b10010101)
(= |y$w_buff1#4$rclk$8| #b11011000)
(= |y$w_buff1#1$wclk$8| #b01000001)
(= |y$w_buff1#12$rclk$8| #b10101110)
(= |y$w_buff1#11$wclk$8| #b11011000)
(= |y$w_buff1#15$rclk$8| #b10010101)
(= |y$w_buff1#23$rclk$8| #b10100011)
(= |y$w_buff1#25$rclk$8| #b11000001)
(= |y$w_buff1_used#23$wclk$8| #b10101110)
(= |y$w_buff1_used#2$rclk$8| #b11010011)
(= |y$w_buff1_used#24$wclk$8| #b10000110)
(= |y$w_buff1_used#36$wclk$8| #b10010101)
(= |y$w_buff1_used#43$wclk$8| #b10100011)
(= |y$w_buff1_used#46$wclk$8| #b11000001)
(= |y$w_buff1_used#9$rclk$8| #b11011000)
(= |y$w_buff1_used#1$wclk$8| #b01000010)
(= |y$w_buff1_used#21$rclk$8| #b10101110)
(= |y$w_buff1_used#8$wclk$8| #b11010011)
(= |y$w_buff1_used#20$wclk$8| #b11011000)
(= |y$w_buff1_used#25$rclk$8| #b10010101)
(= |y$w_buff1_used#37$rclk$8| #b10100011)
(= |y$w_buff1_used#44$rclk$8| #b11000001)
(= |weak$$choice0#7$wclk$8| #b10010101)
(= |weak$$choice0#3$rclk$8| #b11011000)
(= |weak$$choice0#1$wclk$8| #b00010010)
(= |weak$$choice0#6$rclk$8| #b10010101)
(= |weak$$choice0#4$wclk$8| #b11011000)
(= |weak$$choice2#21$wclk$8| #b10010101)
(= |weak$$choice2#3$rclk$8| #b11011000)
(= |weak$$choice2#1$wclk$8| #b00010011)
(= |weak$$choice2#13$rclk$8| #b10010101)
(= |weak$$choice2#11$wclk$8| #b11011000)
(= |__unbuffered_p0_EAX#1$wclk$8| #b00001100)
(= |y$r_buff0_thd2#5$wclk$8| #b10000110)
(= |y$r_buff0_thd2#32$wclk$8| #b10010101)
(= |y$r_buff0_thd2#41$wclk$8| #b10100011)
(= |y$r_buff1_thd2#4$wclk$8| #b10000110)
(= |y$r_buff1_thd2#16$wclk$8| #b10010101)
(= |y$r_buff1_thd2#23$wclk$8| #b10100011)
(= t1$40$spwnclk$8 #b01001011)
(= t1$45$spwnclk$8 #b01100011)
(= t1$50$spwnclk$8 #b01110101)
(= |main::1::t1702!0@1$wclk$8| #b00000000)
(= |main::1::t1703!0@1$wclk$8| #b00000001)
(= |__CPROVER_dead_object#1$wclk$8| #b00000010)
(= |__CPROVER_deallocated#1$wclk$8| #b00000011)
(= |__CPROVER_malloc_is_new_array#1$wclk$8| #b00000100)
(= |__CPROVER_malloc_object#1$wclk$8| #b00000101)
(= |__CPROVER_malloc_size#1$wclk$8| #b00000110)
(= |__CPROVER_memory_leak#1$wclk$8| #b00000111)
(= |__CPROVER_next_thread_id#1$wclk$8| #b00001000)
(= |__CPROVER_pipe_count#1$wclk$8| #b00001001)
(= |main$tmp_guard0#1$wclk$8| #b00001111)
(= |main$tmp_guard1#1$wclk$8| #b00010001)
(= |y$read_delayed#1$wclk$8| #b00111100)
(= |y$read_delayed_var#1$wclk$8| #b00111110)
(= |main::1::t1701!0@1#1$wclk$8| #b01000100)
(= |__CPROVER_next_thread_id#2$wclk$8| #b01001001)
(= |main::1::t1701!0@1#2$wclk$8| #b01001010)
(= |main::1::t1702!0@1#1$wclk$8| #b01011000)
(= |__CPROVER_next_thread_id#3$rclk$8| #b01011001)
(= |__CPROVER_next_thread_id#5$wclk$8| #b01011001)
(= |main::1::t1702!0@1#2$wclk$8| #b01011010)
(= |main::1::t1703!0@1#1$wclk$8| #b01101001)
(= |__CPROVER_next_thread_id#6$rclk$8| #b01110010)
(= |__CPROVER_next_thread_id#8$wclk$8| #b01110010)
(= |main::1::t1703!0@1#2$wclk$8| #b01110011)
(= |main$tmp_guard0#2$wclk$8| #b11010001)
(= |main$tmp_guard0#3$rclk$8| #b11010010)
(= |y$r_buff0_thd0#2$rclk$8| #b11010011)
(= |main$tmp_guard1#3$rclk$8| #b11011000)
(= |y$r_buff0_thd0#11$rclk$8| #b11011000)
(= |main$tmp_guard1#4$wclk$8| #b11011000)
(= |main$tmp_guard1#5$rclk$8| #b11110000)
(= |main$tmp_guard1#6$rclk$8| #b11110111)
(= array_of.0 @fun_7)
(= |__CPROVER_threads_exited#2| @fun_7)
(= |__CPROVER_threads_exited#4| @fun_7)
(= |__CPROVER_threads_exited#6| @fun_7)
(function @fun_7
 (type (Array (_ BitVec 32) (_ BitVec 1)))
 (= (@fun_7 #b00000000000000000000000000000000) #b0)
 (default #b1))

real	0m0.037s
user	0m0.037s
sys	0m0.000s
State: AC Run_time: 0.03873133659362793